(set-option :produce-proofs true)
(set-info :status unsat)
(set-info :difficulty "{ 0 }")
(set-logic QF_LIA)
(declare-fun x () Int)
(declare-fun y () Int)
(declare-fun z () Int)
(assert (distinct x 6))
(assert (= x (+ y 1)))
(assert (<= 9 (* 2 y) 11))
(check-sat)
(get-proof)
(exit)
